JOBS = 1..6;
MACHINES = 1..3;
SPEED = 2;
time = array3d(JOBS,MACHINES,1..SPEED,[234,42,122,21,45,8,138,24,29,5,186,33,42,7,150,27,237,42,145,26,48,8,88,15,97,17,168,30,55,10,148,26,106,19,54,9]);
energy = array3d(JOBS,MACHINES,1..SPEED,[9,65,29,81,63,92,25,78,74,95,15,71,65,93,22,76,9,65,23,77,61,92,41,86,37,84,18,74,57,90,22,77,34,82,58,91]);
precedence = array2d(JOBS,MACHINES,[2,1,0,1,2,0,2,1,0,0,1,2,1,2,0,1,0,2]);
ME = 1;
TE = 178;
st_old = array2d(JOBS,MACHINES,[456,334,283,432,456,97,390,106,0,0,256,328,145,304,42,242,0,416]);
SpeedScaling = array2d(JOBS,MACHINES,[2,1,1,2,1,1,1,1,2,1,1,1,1,2,1,1,1,1]);
